50 20 10 12
-1
-1
-1
-1
-1
5 11 16 -1
12 -1
6 18 -1
3 10 14 -1
10 -1
7 15 -1
4 5 -1
7 9 -1
-1
8 9 12 17 -1
7 -1
-1
8 -1
19 -1
10 18 -1
-1
5 6 14 -1
4 10 -1
-1
6 -1
18 -1
-1
17 -1
9 -1
2 14 -1
-1
5 -1
16 18 -1
11 -1
2 6 8 -1
-1
-1
-1
-1
4 -1
5 20 -1
15 -1
-1
5 -1
-1
-1
14 -1
5 12 -1
2 -1
6 10 -1
